NAME : R101.16377.tour
COMMENT : Cost = 0_16377
COMMENT : Found by LKH [Keld Helsgaun] Wed Sep 13 18:36:57 2017
TYPE : TOUR
DIMENSION : 120
TOUR_SECTION
1
13
77
80
4
55
25
81
113
6
84
62
86
38
94
117
15
45
39
44
14
111
3
22
74
42
57
5
103
32
89
8
115
63
12
91
11
104
46
83
19
85
61
90
114
73
76
23
75
59
106
96
100
95
97
116
60
99
17
87
92
101
118
29
30
79
35
36
78
102
66
72
10
67
2
110
40
24
68
56
26
105
53
7
119
34
82
51
69
120
64
65
50
49
108
41
54
27
112
93
43
16
88
58
98
107
28
70
31
52
21
33
71
109
37
48
20
9
47
18
-1
EOF
